17	4
14	10	11	14	
0	0	0	0	0	3	2	3	4	
2	0	0	2	0	1	10	
10	0	8	0	0	3	5	9	15	
7	0	0	7	0	2	7	13	
1	8	0	0	0	2	6	17	
75	0	0	0	8	3	13	16	17	
150	0	0	5	0	3	8	11	17	
50	0	9	0	0	1	17	
250	0	0	0	2	2	14	17	
125	1	0	0	0	2	12	17	
225	2	0	0	0	2	17	17	
100	0	0	6	0	1	17	
4	0	5	0	0	1	17	
2	0	0	10	0	1	17	
4	0	0	0	10	1	17	
10	10	0	0	0	2	17	17	
0	0	0	0	0	0	
